inputs/42.in
12
0 66 56 88 21 16 7 29 44 73 26 9 
66 0 68 44 75 5 46 34 7 100 20 77 
56 68 0 93 33 19 64 83 99 70 3 32 
88 44 93 0 41 98 40 86 48 64 21 17 
21 75 33 41 0 81 82 22 48 30 96 50 
16 5 19 98 81 0 17 88 90 6 64 85 
7 46 64 40 82 17 0 57 22 45 59 80 
29 34 83 86 22 88 57 0 41 58 27 75 
44 7 99 48 48 90 22 41 0 15 51 99 
73 100 70 64 30 6 45 58 15 0 79 19 
26 20 3 21 96 64 59 27 51 79 0 89 
9 77 32 17 50 85 80 75 99 19 89 0 
BBBBRRRRRBBR
