output/42.out
18 22 29 37 46 20 40 35 30 33 3 21 47 34 44 15 49 32 50 7 19 23 31 17 5 27 25 39 45 10 43 8 28 1 6 26 41 13 16 48 42 4 24 9 36 11 14 38 12 2 
